6544.0
[1, 0, 1, 1, 0, 1, 0, 0, 1, 0, 0, 1, 0, 0, 1, 0, 0, 0, 1, 1]
[2, 14, 11, 5, 19, 18, 0, 3, 2, 2, 11, 18, 19, 14, 19, 0, 0, 2, 14, 14, 5, 11, 5, 8, 8, 8, 11, 2, 2, 3, 0, 19, 19, 8, 14, 19, 19, 0, 0, 0, 0, 3, 3, 8, 11, 14, 8, 19, 18, 19, 2, 2, 2, 3, 2, 5, 2, 14, 14, 14, 11, 11, 3, 3, 11, 3, 0, 0, 19, 19, 18, 18, 19, 19, 19, 18, 18, 19, 19, 19]